c Reduced graph for r30 generated by Cyril Grelier
p edge 301 4122
e 1 6
e 1 25
e 1 33
e 1 38
e 1 48
e 1 55
e 1 78
e 1 80
e 1 82
e 1 85
e 1 94
e 1 103
e 1 104
e 1 127
e 1 137
e 1 142
e 1 159
e 1 160
e 1 184
e 1 187
e 1 191
e 1 192
e 1 193
e 1 243
e 1 250
e 1 258
e 1 260
e 1 289
e 1 292
e 2 11
e 2 33
e 2 37
e 2 64
e 2 67
e 2 72
e 2 86
e 2 87
e 2 99
e 2 106
e 2 112
e 2 122
e 2 134
e 2 136
e 2 139
e 2 143
e 2 156
e 2 162
e 2 170
e 2 177
e 2 192
e 2 226
e 2 234
e 2 242
e 2 251
e 2 255
e 2 266
e 2 270
e 2 271
e 2 272
e 2 284
e 3 19
e 3 21
e 3 35
e 3 59
e 3 68
e 3 89
e 3 95
e 3 99
e 3 100
e 3 109
e 3 111
e 3 116
e 3 155
e 3 158
e 3 166
e 3 181
e 3 189
e 3 195
e 3 207
e 3 216
e 3 219
e 3 222
e 3 223
e 3 240
e 3 253
e 3 265
e 3 280
e 3 292
e 3 297
e 4 10
e 4 30
e 4 50
e 4 67
e 4 73
e 4 80
e 4 84
e 4 120
e 4 133
e 4 134
e 4 138
e 4 140
e 4 150
e 4 168
e 4 209
e 4 210
e 4 225
e 4 227
e 4 230
e 4 244
e 4 252
e 4 256
e 4 258
e 4 264
e 4 279
e 4 280
e 4 293
e 5 7
e 5 11
e 5 15
e 5 27
e 5 41
e 5 72
e 5 84
e 5 109
e 5 128
e 5 154
e 5 159
e 5 183
e 5 189
e 5 196
e 5 200
e 5 202
e 5 239
e 5 245
e 5 248
e 5 261
e 5 264
e 6 9
e 6 20
e 6 32
e 6 33
e 6 34
e 6 51
e 6 57
e 6 75
e 6 77
e 6 78
e 6 80
e 6 85
e 6 91
e 6 103
e 6 104
e 6 119
e 6 127
e 6 137
e 6 141
e 6 142
e 6 154
e 6 158
e 6 159
e 6 184
e 6 191
e 6 255
e 6 289
e 6 290
e 6 300
e 7 11
e 7 31
e 7 39
e 7 49
e 7 51
e 7 60
e 7 84
e 7 109
e 7 111
e 7 128
e 7 131
e 7 136
e 7 159
e 7 167
e 7 183
e 7 196
e 7 231
e 7 261
e 7 268
e 8 21
e 8 27
e 8 62
e 8 64
e 8 66
e 8 77
e 8 90
e 8 94
e 8 105
e 8 110
e 8 121
e 8 123
e 8 124
e 8 138
e 8 144
e 8 145
e 8 148
e 8 156
e 8 161
e 8 167
e 8 171
e 8 172
e 8 180
e 8 197
e 8 206
e 8 211
e 8 219
e 8 259
e 8 262
e 8 269
e 8 301
e 9 20
e 9 24
e 9 32
e 9 34
e 9 37
e 9 43
e 9 51
e 9 54
e 9 55
e 9 57
e 9 73
e 9 75
e 9 77
e 9 81
e 9 91
e 9 119
e 9 141
e 9 154
e 9 158
e 9 218
e 9 221
e 9 253
e 9 255
e 9 275
e 9 276
e 9 281
e 9 290
e 9 300
e 10 30
e 10 34
e 10 50
e 10 67
e 10 73
e 10 76
e 10 80
e 10 87
e 10 108
e 10 133
e 10 138
e 10 148
e 10 168
e 10 174
e 10 181
e 10 194
e 10 198
e 10 209
e 10 244
e 10 252
e 10 256
e 10 260
e 10 261
e 10 264
e 10 279
e 10 280
e 10 283
e 10 287
e 10 298
e 11 67
e 11 84
e 11 86
e 11 109
e 11 122
e 11 128
e 11 156
e 11 159
e 11 183
e 11 192
e 11 196
e 11 226
e 11 242
e 11 255
e 11 261
e 11 266
e 11 271
e 11 272
e 11 284
e 12 15
e 12 52
e 12 61
e 12 68
e 12 92
e 12 93
e 12 96
e 12 98
e 12 117
e 12 118
e 12 139
e 12 150
e 12 165
e 12 180
e 12 186
e 12 191
e 12 195
e 12 199
e 12 203
e 12 224
e 12 237
e 12 249
e 12 252
e 12 257
e 12 266
e 12 283
e 12 290
e 12 299
e 13 23
e 13 31
e 13 32
e 13 40
e 13 82
e 13 100
e 13 114
e 13 115
e 13 118
e 13 130
e 13 137
e 13 147
e 13 152
e 13 163
e 13 172
e 13 174
e 13 203
e 13 211
e 13 215
e 13 218
e 13 228
e 13 230
e 13 239
e 13 244
e 13 247
e 13 251
e 14 17
e 14 23
e 14 41
e 14 52
e 14 65
e 14 69
e 14 70
e 14 76
e 14 86
e 14 101
e 14 125
e 14 126
e 14 141
e 14 144
e 14 146
e 14 166
e 14 170
e 14 184
e 14 185
e 14 204
e 14 213
e 14 217
e 14 225
e 14 228
e 14 236
e 14 241
e 14 250
e 14 257
e 14 277
e 14 285
e 14 295
e 14 297
e 15 27
e 15 41
e 15 52
e 15 61
e 15 72
e 15 92
e 15 93
e 15 117
e 15 150
e 15 154
e 15 189
e 15 191
e 15 195
e 15 199
e 15 200
e 15 202
e 15 203
e 15 239
e 15 245
e 15 248
e 15 249
e 15 264
e 15 266
e 15 283
e 15 299
e 16 26
e 16 39
e 16 50
e 16 53
e 16 56
e 16 57
e 16 59
e 16 74
e 16 90
e 16 97
e 16 122
e 16 124
e 16 129
e 16 149
e 16 152
e 16 160
e 16 188
e 16 190
e 16 198
e 16 207
e 16 217
e 16 227
e 16 235
e 16 249
e 16 254
e 16 263
e 16 278
e 16 285
e 16 286
e 17 41
e 17 48
e 17 53
e 17 65
e 17 69
e 17 76
e 17 83
e 17 86
e 17 126
e 17 146
e 17 153
e 17 162
e 17 173
e 17 182
e 17 184
e 17 185
e 17 199
e 17 204
e 17 206
e 17 208
e 17 212
e 17 217
e 17 225
e 17 228
e 17 232
e 17 256
e 17 257
e 17 277
e 17 297
e 18 22
e 18 42
e 18 63
e 18 71
e 18 96
e 18 104
e 18 108
e 18 113
e 18 115
e 18 116
e 18 119
e 18 121
e 18 126
e 18 133
e 18 140
e 18 157
e 18 169
e 18 175
e 18 182
e 18 193
e 18 214
e 18 229
e 18 231
e 18 248
e 18 254
e 18 265
e 18 273
e 18 278
e 18 282
e 18 295
e 18 301
e 19 21
e 19 26
e 19 38
e 19 68
e 19 89
e 19 102
e 19 111
e 19 112
e 19 123
e 19 166
e 19 178
e 19 181
e 19 189
e 19 201
e 19 207
e 19 209
e 19 216
e 19 222
e 19 223
e 19 233
e 19 253
e 19 265
e 19 277
e 19 282
e 19 296
e 20 32
e 20 34
e 20 36
e 20 42
e 20 51
e 20 57
e 20 69
e 20 75
e 20 77
e 20 91
e 20 93
e 20 106
e 20 119
e 20 141
e 20 151
e 20 154
e 20 158
e 20 197
e 20 235
e 20 243
e 20 246
e 20 247
e 20 255
e 20 279
e 20 290
e 20 294
e 20 300
e 21 62
e 21 64
e 21 66
e 21 68
e 21 77
e 21 89
e 21 94
e 21 105
e 21 111
e 21 121
e 21 124
e 21 138
e 21 145
e 21 161
e 21 166
e 21 171
e 21 172
e 21 181
e 21 189
e 21 207
e 21 216
e 21 222
e 21 223
e 21 253
e 21 265
e 21 269
e 22 42
e 22 88
e 22 92
e 22 96
e 22 97
e 22 104
e 22 108
e 22 116
e 22 121
e 22 128
e 22 135
e 22 140
e 22 146
e 22 164
e 22 175
e 22 177
e 22 182
e 22 187
e 22 223
e 22 229
e 22 231
e 22 248
e 22 259
e 22 274
e 22 278
e 22 282
e 22 288
e 22 295
e 22 300
e 23 31
e 23 52
e 23 70
e 23 100
e 23 101
e 23 114
e 23 115
e 23 118
e 23 125
e 23 137
e 23 141
e 23 144
e 23 152
e 23 163
e 23 166
e 23 170
e 23 172
e 23 174
e 23 213
e 23 218
e 23 230
e 23 236
e 23 239
e 23 241
e 23 247
e 23 250
e 23 285
e 23 295
e 24 37
e 24 43
e 24 54
e 24 55
e 24 63
e 24 73
e 24 78
e 24 81
e 24 95
e 24 120
e 24 131
e 24 145
e 24 164
e 24 178
e 24 205
e 24 213
e 24 218
e 24 221
e 24 226
e 24 237
e 24 238
e 24 246
e 24 253
e 24 275
e 24 276
e 24 281
e 24 291
e 25 28
e 25 29
e 25 38
e 25 44
e 25 46
e 25 48
e 25 55
e 25 65
e 25 82
e 25 89
e 25 94
e 25 110
e 25 117
e 25 132
e 25 160
e 25 163
e 25 187
e 25 192
e 25 193
e 25 243
e 25 250
e 25 258
e 25 260
e 25 270
e 25 291
e 25 292
e 26 38
e 26 39
e 26 53
e 26 59
e 26 97
e 26 102
e 26 112
e 26 122
e 26 123
e 26 124
e 26 149
e 26 178
e 26 188
e 26 198
e 26 201
e 26 209
e 26 227
e 26 233
e 26 235
e 26 254
e 26 277
e 26 282
e 26 285
e 26 296
e 27 41
e 27 72
e 27 90
e 27 110
e 27 123
e 27 144
e 27 148
e 27 154
e 27 156
e 27 167
e 27 180
e 27 189
e 27 197
e 27 200
e 27 202
e 27 206
e 27 211
e 27 219
e 27 239
e 27 245
e 27 248
e 27 259
e 27 262
e 27 264
e 27 301
e 28 29
e 28 36
e 28 44
e 28 46
e 28 47
e 28 65
e 28 89
e 28 110
e 28 117
e 28 129
e 28 132
e 28 147
e 28 153
e 28 161
e 28 163
e 28 241
e 28 270
e 28 271
e 28 275
e 28 287
e 28 288
e 28 291
e 28 293
e 28 296
e 29 44
e 29 46
e 29 54
e 29 65
e 29 83
e 29 89
e 29 101
e 29 110
e 29 117
e 29 132
e 29 163
e 29 200
e 29 214
e 29 233
e 29 269
e 29 270
e 29 272
e 29 274
e 29 286
e 29 291
e 30 45
e 30 47
e 30 50
e 30 58
e 30 61
e 30 67
e 30 73
e 30 79
e 30 80
e 30 91
e 30 107
e 30 133
e 30 138
e 30 143
e 30 149
e 30 168
e 30 176
e 30 196
e 30 204
e 30 205
e 30 209
e 30 216
e 30 229
e 30 244
e 30 252
e 30 256
e 30 262
e 30 264
e 30 279
e 30 280
e 31 39
e 31 49
e 31 51
e 31 60
e 31 100
e 31 111
e 31 114
e 31 115
e 31 118
e 31 131
e 31 136
e 31 137
e 31 152
e 31 163
e 31 167
e 31 172
e 31 174
e 31 218
e 31 230
e 31 231
e 31 239
e 31 247
e 31 268
e 32 34
e 32 40
e 32 51
e 32 57
e 32 75
e 32 77
e 32 82
e 32 91
e 32 119
e 32 130
e 32 141
e 32 147
e 32 154
e 32 158
e 32 203
e 32 211
e 32 215
e 32 228
e 32 244
e 32 251
e 32 255
e 32 290
e 32 300
e 33 37
e 33 64
e 33 72
e 33 78
e 33 80
e 33 85
e 33 87
e 33 99
e 33 103
e 33 104
e 33 106
e 33 112
e 33 127
e 33 134
e 33 136
e 33 137
e 33 139
e 33 142
e 33 143
e 33 159
e 33 162
e 33 170
e 33 177
e 33 184
e 33 191
e 33 234
e 33 251
e 33 270
e 33 289
e 34 51
e 34 57
e 34 75
e 34 76
e 34 77
e 34 87
e 34 91
e 34 108
e 34 119
e 34 141
e 34 148
e 34 154
e 34 158
e 34 174
e 34 181
e 34 194
e 34 198
e 34 255
e 34 260
e 34 261
e 34 283
e 34 287
e 34 290
e 34 298
e 34 300
e 35 40
e 35 43
e 35 45
e 35 59
e 35 62
e 35 95
e 35 99
e 35 100
e 35 109
e 35 116
e 35 155
e 35 158
e 35 169
e 35 195
e 35 201
e 35 210
e 35 219
e 35 232
e 35 240
e 35 267
e 35 280
e 35 289
e 35 292
e 35 297
e 36 42
e 36 47
e 36 69
e 36 93
e 36 106
e 36 129
e 36 147
e 36 151
e 36 153
e 36 161
e 36 197
e 36 235
e 36 241
e 36 243
e 36 246
e 36 247
e 36 271
e 36 275
e 36 279
e 36 287
e 36 288
e 36 293
e 36 294
e 36 296
e 37 43
e 37 54
e 37 55
e 37 64
e 37 72
e 37 73
e 37 81
e 37 87
e 37 99
e 37 106
e 37 112
e 37 134
e 37 136
e 37 139
e 37 143
e 37 162
e 37 170
e 37 177
e 37 218
e 37 221
e 37 234
e 37 251
e 37 253
e 37 270
e 37 275
e 37 276
e 37 281
e 38 48
e 38 55
e 38 82
e 38 94
e 38 102
e 38 112
e 38 123
e 38 160
e 38 178
e 38 187
e 38 192
e 38 193
e 38 201
e 38 209
e 38 233
e 38 243
e 38 250
e 38 258
e 38 260
e 38 277
e 38 282
e 38 292
e 38 296
e 39 49
e 39 51
e 39 53
e 39 59
e 39 60
e 39 97
e 39 111
e 39 122
e 39 124
e 39 131
e 39 136
e 39 149
e 39 167
e 39 188
e 39 198
e 39 227
e 39 231
e 39 235
e 39 254
e 39 268
e 39 285
e 40 43
e 40 45
e 40 62
e 40 82
e 40 130
e 40 147
e 40 169
e 40 201
e 40 203
e 40 210
e 40 211
e 40 215
e 40 228
e 40 232
e 40 244
e 40 251
e 40 267
e 40 289
e 41 65
e 41 69
e 41 72
e 41 76
e 41 86
e 41 126
e 41 146
e 41 154
e 41 184
e 41 185
e 41 189
e 41 200
e 41 202
e 41 204
e 41 217
e 41 225
e 41 228
e 41 239
e 41 245
e 41 248
e 41 257
e 41 264
e 41 277
e 41 297
e 42 69
e 42 93
e 42 96
e 42 104
e 42 106
e 42 108
e 42 116
e 42 121
e 42 140
e 42 151
e 42 175
e 42 182
e 42 197
e 42 229
e 42 231
e 42 235
e 42 243
e 42 246
e 42 247
e 42 248
e 42 278
e 42 279
e 42 282
e 42 294
e 42 295
e 43 45
e 43 54
e 43 55
e 43 62
e 43 73
e 43 81
e 43 169
e 43 201
e 43 210
e 43 218
e 43 221
e 43 232
e 43 253
e 43 267
e 43 275
e 43 276
e 43 281
e 43 289
e 44 46
e 44 58
e 44 65
e 44 71
e 44 89
e 44 110
e 44 117
e 44 132
e 44 135
e 44 142
e 44 151
e 44 163
e 44 190
e 44 215
e 44 224
e 44 270
e 44 276
e 44 291
e 45 47
e 45 58
e 45 61
e 45 62
e 45 79
e 45 91
e 45 107
e 45 143
e 45 149
e 45 169
e 45 176
e 45 196
e 45 201
e 45 204
e 45 205
e 45 210
e 45 216
e 45 229
e 45 232
e 45 262
e 45 267
e 45 289
e 46 49
e 46 65
e 46 74
e 46 79
e 46 88
e 46 89
e 46 105
e 46 110
e 46 117
e 46 127
e 46 132
e 46 155
e 46 157
e 46 163
e 46 173
e 46 221
e 46 245
e 46 270
e 46 291
e 47 58
e 47 61
e 47 79
e 47 91
e 47 107
e 47 129
e 47 143
e 47 147
e 47 149
e 47 153
e 47 161
e 47 176
e 47 196
e 47 204
e 47 205
e 47 216
e 47 229
e 47 241
e 47 262
e 47 271
e 47 275
e 47 287
e 47 288
e 47 293
e 47 296
e 48 53
e 48 55
e 48 82
e 48 83
e 48 94
e 48 153
e 48 160
e 48 162
e 48 173
e 48 182
e 48 187
e 48 192
e 48 193
e 48 199
e 48 206
e 48 208
e 48 212
e 48 232
e 48 243
e 48 250
e 48 256
e 48 258
e 48 260
e 48 292
e 49 51
e 49 60
e 49 74
e 49 79
e 49 88
e 49 105
e 49 111
e 49 127
e 49 131
e 49 136
e 49 155
e 49 157
e 49 167
e 49 173
e 49 221
e 49 231
e 49 245
e 49 268
e 50 56
e 50 57
e 50 67
e 50 73
e 50 74
e 50 80
e 50 90
e 50 129
e 50 133
e 50 138
e 50 152
e 50 160
e 50 168
e 50 190
e 50 207
e 50 209
e 50 217
e 50 244
e 50 249
e 50 252
e 50 256
e 50 263
e 50 264
e 50 278
e 50 279
e 50 280
e 50 286
e 51 57
e 51 60
e 51 75
e 51 77
e 51 91
e 51 111
e 51 119
e 51 131
e 51 136
e 51 141
e 51 154
e 51 158
e 51 167
e 51 231
e 51 255
e 51 268
e 51 290
e 51 300
e 52 61
e 52 70
e 52 92
e 52 93
e 52 101
e 52 117
e 52 125
e 52 141
e 52 144
e 52 150
e 52 166
e 52 170
e 52 191
e 52 195
e 52 199
e 52 203
e 52 213
e 52 236
e 52 241
e 52 249
e 52 250
e 52 266
e 52 283
e 52 285
e 52 295
e 52 299
e 53 59
e 53 83
e 53 97
e 53 122
e 53 124
e 53 149
e 53 153
e 53 162
e 53 173
e 53 182
e 53 188
e 53 198
e 53 199
e 53 206
e 53 208
e 53 212
e 53 227
e 53 232
e 53 235
e 53 254
e 53 256
e 53 285
e 54 55
e 54 73
e 54 81
e 54 83
e 54 101
e 54 200
e 54 214
e 54 218
e 54 221
e 54 233
e 54 253
e 54 269
e 54 272
e 54 274
e 54 275
e 54 276
e 54 281
e 54 286
e 55 73
e 55 81
e 55 82
e 55 94
e 55 160
e 55 187
e 55 192
e 55 193
e 55 218
e 55 221
e 55 243
e 55 250
e 55 253
e 55 258
e 55 260
e 55 275
e 55 276
e 55 281
e 55 292
e 56 57
e 56 60
e 56 66
e 56 74
e 56 81
e 56 85
e 56 90
e 56 129
e 56 132
e 56 152
e 56 160
e 56 165
e 56 190
e 56 202
e 56 207
e 56 217
e 56 236
e 56 249
e 56 263
e 56 273
e 56 278
e 56 286
e 56 298
e 57 74
e 57 75
e 57 77
e 57 90
e 57 91
e 57 119
e 57 129
e 57 141
e 57 152
e 57 154
e 57 158
e 57 160
e 57 190
e 57 207
e 57 217
e 57 249
e 57 255
e 57 263
e 57 278
e 57 286
e 57 290
e 57 300
e 58 61
e 58 71
e 58 79
e 58 91
e 58 107
e 58 135
e 58 142
e 58 143
e 58 149
e 58 151
e 58 176
e 58 190
e 58 196
e 58 204
e 58 205
e 58 215
e 58 216
e 58 224
e 58 229
e 58 262
e 58 276
e 59 95
e 59 97
e 59 99
e 59 100
e 59 109
e 59 116
e 59 122
e 59 124
e 59 149
e 59 155
e 59 158
e 59 188
e 59 195
e 59 198
e 59 219
e 59 227
e 59 235
e 59 240
e 59 254
e 59 280
e 59 285
e 59 292
e 59 297
e 60 66
e 60 81
e 60 85
e 60 111
e 60 131
e 60 132
e 60 136
e 60 165
e 60 167
e 60 202
e 60 231
e 60 236
e 60 268
e 60 273
e 60 298
e 61 79
e 61 91
e 61 92
e 61 93
e 61 107
e 61 117
e 61 143
e 61 149
e 61 150
e 61 176
e 61 191
e 61 195
e 61 196
e 61 199
e 61 203
e 61 204
e 61 205
e 61 216
e 61 229
e 61 249
e 61 262
e 61 266
e 61 283
e 61 299
e 62 64
e 62 66
e 62 77
e 62 94
e 62 105
e 62 121
e 62 124
e 62 138
e 62 145
e 62 161
e 62 169
e 62 171
e 62 172
e 62 201
e 62 210
e 62 232
e 62 267
e 62 269
e 62 289
e 63 71
e 63 78
e 63 95
e 63 113
e 63 115
e 63 119
e 63 120
e 63 126
e 63 131
e 63 133
e 63 145
e 63 157
e 63 164
e 63 169
e 63 178
e 63 193
e 63 205
e 63 213
e 63 214
e 63 226
e 63 237
e 63 238
e 63 246
e 63 254
e 63 265
e 63 273
e 63 291
e 63 301
e 64 66
e 64 72
e 64 77
e 64 87
e 64 94
e 64 99
e 64 105
e 64 106
e 64 112
e 64 121
e 64 124
e 64 134
e 64 136
e 64 138
e 64 139
e 64 143
e 64 145
e 64 161
e 64 162
e 64 170
e 64 171
e 64 172
e 64 177
e 64 234
e 64 251
e 64 269
e 64 270
e 65 69
e 65 76
e 65 86
e 65 89
e 65 110
e 65 117
e 65 126
e 65 132
e 65 146
e 65 163
e 65 184
e 65 185
e 65 204
e 65 217
e 65 225
e 65 228
e 65 257
e 65 270
e 65 277
e 65 291
e 65 297
e 66 77
e 66 81
e 66 85
e 66 94
e 66 105
e 66 121
e 66 124
e 66 132
e 66 138
e 66 145
e 66 161
e 66 165
e 66 171
e 66 172
e 66 202
e 66 236
e 66 269
e 66 273
e 66 298
e 67 73
e 67 80
e 67 86
e 67 122
e 67 133
e 67 138
e 67 156
e 67 168
e 67 192
e 67 209
e 67 226
e 67 242
e 67 244
e 67 252
e 67 255
e 67 256
e 67 264
e 67 266
e 67 271
e 67 272
e 67 279
e 67 280
e 67 284
e 68 89
e 68 96
e 68 98
e 68 111
e 68 118
e 68 139
e 68 165
e 68 166
e 68 180
e 68 181
e 68 186
e 68 189
e 68 207
e 68 216
e 68 222
e 68 223
e 68 224
e 68 237
e 68 252
e 68 253
e 68 257
e 68 265
e 68 290
e 69 76
e 69 86
e 69 93
e 69 106
e 69 126
e 69 146
e 69 151
e 69 184
e 69 185
e 69 197
e 69 204
e 69 217
e 69 225
e 69 228
e 69 235
e 69 243
e 69 246
e 69 247
e 69 257
e 69 277
e 69 279
e 69 294
e 69 297
e 70 101
e 70 102
e 70 103
e 70 107
e 70 125
e 70 130
e 70 141
e 70 144
e 70 166
e 70 170
e 70 171
e 70 179
e 70 186
e 70 212
e 70 213
e 70 236
e 70 240
e 70 241
e 70 250
e 70 263
e 70 281
e 70 284
e 70 285
e 70 295
e 71 113
e 71 115
e 71 119
e 71 126
e 71 133
e 71 135
e 71 142
e 71 151
e 71 157
e 71 169
e 71 190
e 71 193
e 71 214
e 71 215
e 71 224
e 71 254
e 71 265
e 71 273
e 71 276
e 71 301
e 72 87
e 72 99
e 72 106
e 72 112
e 72 134
e 72 136
e 72 139
e 72 143
e 72 154
e 72 162
e 72 170
e 72 177
e 72 189
e 72 200
e 72 202
e 72 234
e 72 239
e 72 245
e 72 248
e 72 251
e 72 264
e 72 270
e 73 80
e 73 81
e 73 133
e 73 138
e 73 168
e 73 209
e 73 218
e 73 221
e 73 244
e 73 252
e 73 253
e 73 256
e 73 264
e 73 275
e 73 276
e 73 279
e 73 280
e 73 281
e 74 79
e 74 88
e 74 90
e 74 105
e 74 127
e 74 129
e 74 152
e 74 155
e 74 157
e 74 160
e 74 173
e 74 190
e 74 207
e 74 217
e 74 221
e 74 245
e 74 249
e 74 263
e 74 278
e 74 286
e 75 77
e 75 91
e 75 114
e 75 119
e 75 141
e 75 154
e 75 158
e 75 168
e 75 175
e 75 179
e 75 183
e 75 185
e 75 188
e 75 220
e 75 222
e 75 234
e 75 238
e 75 255
e 75 267
e 75 290
e 75 299
e 75 300
e 76 86
e 76 87
e 76 108
e 76 126
e 76 146
e 76 148
e 76 174
e 76 181
e 76 184
e 76 185
e 76 194
e 76 198
e 76 204
e 76 217
e 76 225
e 76 228
e 76 257
e 76 260
e 76 261
e 76 277
e 76 283
e 76 287
e 76 297
e 76 298
e 77 91
e 77 94
e 77 105
e 77 119
e 77 121
e 77 124
e 77 138
e 77 141
e 77 145
e 77 154
e 77 158
e 77 161
e 77 171
e 77 172
e 77 255
e 77 269
e 77 290
e 77 300
e 78 80
e 78 85
e 78 95
e 78 103
e 78 104
e 78 120
e 78 127
e 78 131
e 78 137
e 78 142
e 78 145
e 78 159
e 78 164
e 78 178
e 78 184
e 78 191
e 78 205
e 78 213
e 78 226
e 78 237
e 78 238
e 78 246
e 78 289
e 78 291
e 79 88
e 79 91
e 79 105
e 79 107
e 79 127
e 79 143
e 79 149
e 79 155
e 79 157
e 79 173
e 79 176
e 79 196
e 79 204
e 79 205
e 79 216
e 79 221
e 79 229
e 79 245
e 79 262
e 80 85
e 80 103
e 80 104
e 80 127
e 80 133
e 80 137
e 80 138
e 80 142
e 80 159
e 80 168
e 80 184
e 80 191
e 80 209
e 80 244
e 80 252
e 80 256
e 80 264
e 80 279
e 80 280
e 80 289
e 81 85
e 81 132
e 81 165
e 81 202
e 81 218
e 81 221
e 81 236
e 81 253
e 81 273
e 81 275
e 81 276
e 81 281
e 81 298
e 82 94
e 82 130
e 82 147
e 82 160
e 82 187
e 82 192
e 82 193
e 82 203
e 82 211
e 82 215
e 82 228
e 82 243
e 82 244
e 82 250
e 82 251
e 82 258
e 82 260
e 82 292
e 83 101
e 83 153
e 83 162
e 83 173
e 83 182
e 83 199
e 83 200
e 83 206
e 83 208
e 83 212
e 83 214
e 83 232
e 83 233
e 83 256
e 83 269
e 83 272
e 83 274
e 83 286
e 84 109
e 84 120
e 84 128
e 84 134
e 84 140
e 84 150
e 84 159
e 84 183
e 84 196
e 84 210
e 84 225
e 84 227
e 84 230
e 84 258
e 84 261
e 84 293
e 85 103
e 85 104
e 85 127
e 85 132
e 85 137
e 85 142
e 85 159
e 85 165
e 85 184
e 85 191
e 85 202
e 85 236
e 85 273
e 85 289
e 85 298
e 86 122
e 86 126
e 86 146
e 86 156
e 86 184
e 86 185
e 86 192
e 86 204
e 86 217
e 86 225
e 86 226
e 86 228
e 86 242
e 86 255
e 86 257
e 86 266
e 86 271
e 86 272
e 86 277
e 86 284
e 86 297
e 87 99
e 87 106
e 87 108
e 87 112
e 87 134
e 87 136
e 87 139
e 87 143
e 87 148
e 87 162
e 87 170
e 87 174
e 87 177
e 87 181
e 87 194
e 87 198
e 87 234
e 87 251
e 87 260
e 87 261
e 87 270
e 87 283
e 87 287
e 87 298
e 88 92
e 88 97
e 88 105
e 88 127
e 88 128
e 88 135
e 88 146
e 88 155
e 88 157
e 88 164
e 88 173
e 88 177
e 88 187
e 88 221
e 88 223
e 88 245
e 88 259
e 88 274
e 88 288
e 88 300
e 89 110
e 89 111
e 89 117
e 89 132
e 89 163
e 89 166
e 89 181
e 89 189
e 89 207
e 89 216
e 89 222
e 89 223
e 89 253
e 89 265
e 89 270
e 89 291
e 90 110
e 90 123
e 90 129
e 90 144
e 90 148
e 90 152
e 90 156
e 90 160
e 90 167
e 90 180
e 90 190
e 90 197
e 90 206
e 90 207
e 90 211
e 90 217
e 90 219
e 90 249
e 90 259
e 90 262
e 90 263
e 90 278
e 90 286
e 90 301
e 91 107
e 91 119
e 91 141
e 91 143
e 91 149
e 91 154
e 91 158
e 91 176
e 91 196
e 91 204
e 91 205
e 91 216
e 91 229
e 91 255
e 91 262
e 91 290
e 91 300
e 92 93
e 92 97
e 92 117
e 92 128
e 92 135
e 92 146
e 92 150
e 92 164
e 92 177
e 92 187
e 92 191
e 92 195
e 92 199
e 92 203
e 92 223
e 92 249
e 92 259
e 92 266
e 92 274
e 92 283
e 92 288
e 92 299
e 92 300
e 93 106
e 93 117
e 93 150
e 93 151
e 93 191
e 93 195
e 93 197
e 93 199
e 93 203
e 93 235
e 93 243
e 93 246
e 93 247
e 93 249
e 93 266
e 93 279
e 93 283
e 93 294
e 93 299
e 94 105
e 94 121
e 94 124
e 94 138
e 94 145
e 94 160
e 94 161
e 94 171
e 94 172
e 94 187
e 94 192
e 94 193
e 94 243
e 94 250
e 94 258
e 94 260
e 94 269
e 94 292
e 95 99
e 95 100
e 95 109
e 95 116
e 95 120
e 95 131
e 95 145
e 95 155
e 95 158
e 95 164
e 95 178
e 95 195
e 95 205
e 95 213
e 95 219
e 95 226
e 95 237
e 95 238
e 95 240
e 95 246
e 95 280
e 95 291
e 95 292
e 95 297
e 96 98
e 96 104
e 96 108
e 96 116
e 96 118
e 96 121
e 96 139
e 96 140
e 96 165
e 96 175
e 96 180
e 96 182
e 96 186
e 96 224
e 96 229
e 96 231
e 96 237
e 96 248
e 96 252
e 96 257
e 96 278
e 96 282
e 96 290
e 96 295
e 97 122
e 97 124
e 97 128
e 97 135
e 97 146
e 97 149
e 97 164
e 97 177
e 97 187
e 97 188
e 97 198
e 97 223
e 97 227
e 97 235
e 97 254
e 97 259
e 97 274
e 97 285
e 97 288
e 97 300
e 98 113
e 98 118
e 98 125
e 98 139
e 98 165
e 98 176
e 98 180
e 98 186
e 98 194
e 98 208
e 98 220
e 98 224
e 98 237
e 98 242
e 98 252
e 98 257
e 98 268
e 98 290
e 98 294
e 99 100
e 99 106
e 99 109
e 99 112
e 99 116
e 99 134
e 99 136
e 99 139
e 99 143
e 99 155
e 99 158
e 99 162
e 99 170
e 99 177
e 99 195
e 99 219
e 99 234
e 99 240
e 99 251
e 99 270
e 99 280
e 99 292
e 99 297
e 100 109
e 100 114
e 100 115
e 100 116
e 100 118
e 100 137
e 100 152
e 100 155
e 100 158
e 100 163
e 100 172
e 100 174
e 100 195
e 100 218
e 100 219
e 100 230
e 100 239
e 100 240
e 100 247
e 100 280
e 100 292
e 100 297
e 101 125
e 101 141
e 101 144
e 101 166
e 101 170
e 101 200
e 101 213
e 101 214
e 101 233
e 101 236
e 101 241
e 101 250
e 101 269
e 101 272
e 101 274
e 101 285
e 101 286
e 101 295
e 102 103
e 102 107
e 102 112
e 102 123
e 102 130
e 102 171
e 102 178
e 102 179
e 102 186
e 102 201
e 102 209
e 102 212
e 102 233
e 102 240
e 102 263
e 102 277
e 102 281
e 102 282
e 102 284
e 102 296
e 103 104
e 103 107
e 103 127
e 103 130
e 103 137
e 103 142
e 103 159
e 103 171
e 103 179
e 103 184
e 103 186
e 103 191
e 103 212
e 103 240
e 103 263
e 103 281
e 103 284
e 103 289
e 104 108
e 104 116
e 104 121
e 104 127
e 104 137
e 104 140
e 104 142
e 104 159
e 104 175
e 104 182
e 104 184
e 104 191
e 104 229
e 104 231
e 104 248
e 104 278
e 104 282
e 104 289
e 104 295
e 105 121
e 105 124
e 105 127
e 105 138
e 105 145
e 105 155
e 105 157
e 105 161
e 105 171
e 105 172
e 105 173
e 105 221
e 105 245
e 105 269
e 106 112
e 106 134
e 106 136
e 106 139
e 106 143
e 106 151
e 106 162
e 106 170
e 106 177
e 106 197
e 106 234
e 106 235
e 106 243
e 106 246
e 106 247
e 106 251
e 106 270
e 106 279
e 106 294
e 107 130
e 107 143
e 107 149
e 107 171
e 107 176
e 107 179
e 107 186
e 107 196
e 107 204
e 107 205
e 107 212
e 107 216
e 107 229
e 107 240
e 107 262
e 107 263
e 107 281
e 107 284
e 108 116
e 108 121
e 108 140
e 108 148
e 108 174
e 108 175
e 108 181
e 108 182
e 108 194
e 108 198
e 108 229
e 108 231
e 108 248
e 108 260
e 108 261
e 108 278
e 108 282
e 108 283
e 108 287
e 108 295
e 108 298
e 109 116
e 109 128
e 109 155
e 109 158
e 109 159
e 109 183
e 109 195
e 109 196
e 109 219
e 109 240
e 109 261
e 109 280
e 109 292
e 109 297
e 110 117
e 110 123
e 110 132
e 110 144
e 110 148
e 110 156
e 110 163
e 110 167
e 110 180
e 110 197
e 110 206
e 110 211
e 110 219
e 110 259
e 110 262
e 110 270
e 110 291
e 110 301
e 111 131
e 111 136
e 111 166
e 111 167
e 111 181
e 111 189
e 111 207
e 111 216
e 111 222
e 111 223
e 111 231
e 111 253
e 111 265
e 111 268
e 112 123
e 112 134
e 112 136
e 112 139
e 112 143
e 112 162
e 112 170
e 112 177
e 112 178
e 112 201
e 112 209
e 112 233
e 112 234
e 112 251
e 112 270
e 112 277
e 112 282
e 112 296
e 113 115
e 113 119
e 113 125
e 113 126
e 113 133
e 113 157
e 113 169
e 113 176
e 113 193
e 113 194
e 113 208
e 113 214
e 113 220
e 113 242
e 113 254
e 113 265
e 113 268
e 113 273
e 113 294
e 113 301
e 114 115
e 114 118
e 114 137
e 114 152
e 114 163
e 114 168
e 114 172
e 114 174
e 114 175
e 114 179
e 114 183
e 114 185
e 114 188
e 114 218
e 114 220
e 114 222
e 114 230
e 114 234
e 114 238
e 114 239
e 114 247
e 114 267
e 114 299
e 115 118
e 115 119
e 115 126
e 115 133
e 115 137
e 115 152
e 115 157
e 115 163
e 115 169
e 115 172
e 115 174
e 115 193
e 115 214
e 115 218
e 115 230
e 115 239
e 115 247
e 115 254
e 115 265
e 115 273
e 115 301
e 116 121
e 116 140
e 116 155
e 116 158
e 116 175
e 116 182
e 116 195
e 116 219
e 116 229
e 116 231
e 116 240
e 116 248
e 116 278
e 116 280
e 116 282
e 116 292
e 116 295
e 116 297
e 117 132
e 117 150
e 117 163
e 117 191
e 117 195
e 117 199
e 117 203
e 117 249
e 117 266
e 117 270
e 117 283
e 117 291
e 117 299
e 118 137
e 118 139
e 118 152
e 118 163
e 118 165
e 118 172
e 118 174
e 118 180
e 118 186
e 118 218
e 118 224
e 118 230
e 118 237
e 118 239
e 118 247
e 118 252
e 118 257
e 118 290
e 119 126
e 119 133
e 119 141
e 119 154
e 119 157
e 119 158
e 119 169
e 119 193
e 119 214
e 119 254
e 119 255
e 119 265
e 119 273
e 119 290
e 119 300
e 119 301
e 120 131
e 120 134
e 120 140
e 120 145
e 120 150
e 120 164
e 120 178
e 120 205
e 120 210
e 120 213
e 120 225
e 120 226
e 120 227
e 120 230
e 120 237
e 120 238
e 120 246
e 120 258
e 120 291
e 120 293
e 121 124
e 121 138
e 121 140
e 121 145
e 121 161
e 121 171
e 121 172
e 121 175
e 121 182
e 121 229
e 121 231
e 121 248
e 121 269
e 121 278
e 121 282
e 121 295
e 122 124
e 122 149
e 122 156
e 122 188
e 122 192
e 122 198
e 122 226
e 122 227
e 122 235
e 122 242
e 122 254
e 122 255
e 122 266
e 122 271
e 122 272
e 122 284
e 122 285
e 123 144
e 123 148
e 123 156
e 123 167
e 123 178
e 123 180
e 123 197
e 123 201
e 123 206
e 123 209
e 123 211
e 123 219
e 123 233
e 123 259
e 123 262
e 123 277
e 123 282
e 123 296
e 123 301
e 124 138
e 124 145
e 124 149
e 124 161
e 124 171
e 124 172
e 124 188
e 124 198
e 124 227
e 124 235
e 124 254
e 124 269
e 124 285
e 125 141
e 125 144
e 125 166
e 125 170
e 125 176
e 125 194
e 125 208
e 125 213
e 125 220
e 125 236
e 125 241
e 125 242
e 125 250
e 125 268
e 125 285
e 125 294
e 125 295
e 126 133
e 126 146
e 126 157
e 126 169
e 126 184
e 126 185
e 126 193
e 126 204
e 126 214
e 126 217
e 126 225
e 126 228
e 126 254
e 126 257
e 126 265
e 126 273
e 126 277
e 126 297
e 126 301
e 127 137
e 127 142
e 127 155
e 127 157
e 127 159
e 127 173
e 127 184
e 127 191
e 127 221
e 127 245
e 127 289
e 128 135
e 128 146
e 128 159
e 128 164
e 128 177
e 128 183
e 128 187
e 128 196
e 128 223
e 128 259
e 128 261
e 128 274
e 128 288
e 128 300
e 129 147
e 129 152
e 129 153
e 129 160
e 129 161
e 129 190
e 129 207
e 129 217
e 129 241
e 129 249
e 129 263
e 129 271
e 129 275
e 129 278
e 129 286
e 129 287
e 129 288
e 129 293
e 129 296
e 130 147
e 130 171
e 130 179
e 130 186
e 130 203
e 130 211
e 130 212
e 130 215
e 130 228
e 130 240
e 130 244
e 130 251
e 130 263
e 130 281
e 130 284
e 131 136
e 131 145
e 131 164
e 131 167
e 131 178
e 131 205
e 131 213
e 131 226
e 131 231
e 131 237
e 131 238
e 131 246
e 131 268
e 131 291
e 132 163
e 132 165
e 132 202
e 132 236
e 132 270
e 132 273
e 132 291
e 132 298
e 133 138
e 133 157
e 133 168
e 133 169
e 133 193
e 133 209
e 133 214
e 133 244
e 133 252
e 133 254
e 133 256
e 133 264
e 133 265
e 133 273
e 133 279
e 133 280
e 133 301
e 134 136
e 134 139
e 134 140
e 134 143
e 134 150
e 134 162
e 134 170
e 134 177
e 134 210
e 134 225
e 134 227
e 134 230
e 134 234
e 134 251
e 134 258
e 134 270
e 134 293
e 135 142
e 135 146
e 135 151
e 135 164
e 135 177
e 135 187
e 135 190
e 135 215
e 135 223
e 135 224
e 135 259
e 135 274
e 135 276
e 135 288
e 135 300
e 136 139
e 136 143
e 136 162
e 136 167
e 136 170
e 136 177
e 136 231
e 136 234
e 136 251
e 136 268
e 136 270
e 137 142
e 137 152
e 137 159
e 137 163
e 137 172
e 137 174
e 137 184
e 137 191
e 137 218
e 137 230
e 137 239
e 137 247
e 137 289
e 138 145
e 138 161
e 138 168
e 138 171
e 138 172
e 138 209
e 138 244
e 138 252
e 138 256
e 138 264
e 138 269
e 138 279
e 138 280
e 139 143
e 139 162
e 139 165
e 139 170
e 139 177
e 139 180
e 139 186
e 139 224
e 139 234
e 139 237
e 139 251
e 139 252
e 139 257
e 139 270
e 139 290
e 140 150
e 140 175
e 140 182
e 140 210
e 140 225
e 140 227
e 140 229
e 140 230
e 140 231
e 140 248
e 140 258
e 140 278
e 140 282
e 140 293
e 140 295
e 141 144
e 141 154
e 141 158
e 141 166
e 141 170
e 141 213
e 141 236
e 141 241
e 141 250
e 141 255
e 141 285
e 141 290
e 141 295
e 141 300
e 142 151
e 142 159
e 142 184
e 142 190
e 142 191
e 142 215
e 142 224
e 142 276
e 142 289
e 143 149
e 143 162
e 143 170
e 143 176
e 143 177
e 143 196
e 143 204
e 143 205
e 143 216
e 143 229
e 143 234
e 143 251
e 143 262
e 143 270
e 144 148
e 144 156
e 144 166
e 144 167
e 144 170
e 144 180
e 144 197
e 144 206
e 144 211
e 144 213
e 144 219
e 144 236
e 144 241
e 144 250
e 144 259
e 144 262
e 144 285
e 144 295
e 144 301
e 145 161
e 145 164
e 145 171
e 145 172
e 145 178
e 145 205
e 145 213
e 145 226
e 145 237
e 145 238
e 145 246
e 145 269
e 145 291
e 146 164
e 146 177
e 146 184
e 146 185
e 146 187
e 146 204
e 146 217
e 146 223
e 146 225
e 146 228
e 146 257
e 146 259
e 146 274
e 146 277
e 146 288
e 146 297
e 146 300
e 147 153
e 147 161
e 147 203
e 147 211
e 147 215
e 147 228
e 147 241
e 147 244
e 147 251
e 147 271
e 147 275
e 147 287
e 147 288
e 147 293
e 147 296
e 148 156
e 148 167
e 148 174
e 148 180
e 148 181
e 148 194
e 148 197
e 148 198
e 148 206
e 148 211
e 148 219
e 148 259
e 148 260
e 148 261
e 148 262
e 148 283
e 148 287
e 148 298
e 148 301
e 149 176
e 149 188
e 149 196
e 149 198
e 149 204
e 149 205
e 149 216
e 149 227
e 149 229
e 149 235
e 149 254
e 149 262
e 149 285
e 150 191
e 150 195
e 150 199
e 150 203
e 150 210
e 150 225
e 150 227
e 150 230
e 150 249
e 150 258
e 150 266
e 150 283
e 150 293
e 150 299
e 151 190
e 151 197
e 151 215
e 151 224
e 151 235
e 151 243
e 151 246
e 151 247
e 151 276
e 151 279
e 151 294
e 152 160
e 152 163
e 152 172
e 152 174
e 152 190
e 152 207
e 152 217
e 152 218
e 152 230
e 152 239
e 152 247
e 152 249
e 152 263
e 152 278
e 152 286
e 153 161
e 153 162
e 153 173
e 153 182
e 153 199
e 153 206
e 153 208
e 153 212
e 153 232
e 153 241
e 153 256
e 153 271
e 153 275
e 153 287
e 153 288
e 153 293
e 153 296
e 154 158
e 154 189
e 154 200
e 154 202
e 154 239
e 154 245
e 154 248
e 154 255
e 154 264
e 154 290
e 154 300
e 155 157
e 155 158
e 155 173
e 155 195
e 155 219
e 155 221
e 155 240
e 155 245
e 155 280
e 155 292
e 155 297
e 156 167
e 156 180
e 156 192
e 156 197
e 156 206
e 156 211
e 156 219
e 156 226
e 156 242
e 156 255
e 156 259
e 156 262
e 156 266
e 156 271
e 156 272
e 156 284
e 156 301
e 157 169
e 157 173
e 157 193
e 157 214
e 157 221
e 157 245
e 157 254
e 157 265
e 157 273
e 157 301
e 158 195
e 158 219
e 158 240
e 158 255
e 158 280
e 158 290
e 158 292
e 158 297
e 158 300
e 159 183
e 159 184
e 159 191
e 159 196
e 159 261
e 159 289
e 160 187
e 160 190
e 160 192
e 160 193
e 160 207
e 160 217
e 160 243
e 160 249
e 160 250
e 160 258
e 160 260
e 160 263
e 160 278
e 160 286
e 160 292
e 161 171
e 161 172
e 161 241
e 161 269
e 161 271
e 161 275
e 161 287
e 161 288
e 161 293
e 161 296
e 162 170
e 162 173
e 162 177
e 162 182
e 162 199
e 162 206
e 162 208
e 162 212
e 162 232
e 162 234
e 162 251
e 162 256
e 162 270
e 163 172
e 163 174
e 163 218
e 163 230
e 163 239
e 163 247
e 163 270
e 163 291
e 164 177
e 164 178
e 164 187
e 164 205
e 164 213
e 164 223
e 164 226
e 164 237
e 164 238
e 164 246
e 164 259
e 164 274
e 164 288
e 164 291
e 164 300
e 165 180
e 165 186
e 165 202
e 165 224
e 165 236
e 165 237
e 165 252
e 165 257
e 165 273
e 165 290
e 165 298
e 166 170
e 166 181
e 166 189
e 166 207
e 166 213
e 166 216
e 166 222
e 166 223
e 166 236
e 166 241
e 166 250
e 166 253
e 166 265
e 166 285
e 166 295
e 167 180
e 167 197
e 167 206
e 167 211
e 167 219
e 167 231
e 167 259
e 167 262
e 167 268
e 167 301
e 168 175
e 168 179
e 168 183
e 168 185
e 168 188
e 168 209
e 168 220
e 168 222
e 168 234
e 168 238
e 168 244
e 168 252
e 168 256
e 168 264
e 168 267
e 168 279
e 168 280
e 168 299
e 169 193
e 169 201
e 169 210
e 169 214
e 169 232
e 169 254
e 169 265
e 169 267
e 169 273
e 169 289
e 169 301
e 170 177
e 170 213
e 170 234
e 170 236
e 170 241
e 170 250
e 170 251
e 170 270
e 170 285
e 170 295
e 171 172
e 171 179
e 171 186
e 171 212
e 171 240
e 171 263
e 171 269
e 171 281
e 171 284
e 172 174
e 172 218
e 172 230
e 172 239
e 172 247
e 172 269
e 173 182
e 173 199
e 173 206
e 173 208
e 173 212
e 173 221
e 173 232
e 173 245
e 173 256
e 174 181
e 174 194
e 174 198
e 174 218
e 174 230
e 174 239
e 174 247
e 174 260
e 174 261
e 174 283
e 174 287
e 174 298
e 175 179
e 175 182
e 175 183
e 175 185
e 175 188
e 175 220
e 175 222
e 175 229
e 175 231
e 175 234
e 175 238
e 175 248
e 175 267
e 175 278
e 175 282
e 175 295
e 175 299
e 176 194
e 176 196
e 176 204
e 176 205
e 176 208
e 176 216
e 176 220
e 176 229
e 176 242
e 176 262
e 176 268
e 176 294
e 177 187
e 177 223
e 177 234
e 177 251
e 177 259
e 177 270
e 177 274
e 177 288
e 177 300
e 178 201
e 178 205
e 178 209
e 178 213
e 178 226
e 178 233
e 178 237
e 178 238
e 178 246
e 178 277
e 178 282
e 178 291
e 178 296
e 179 183
e 179 185
e 179 186
e 179 188
e 179 212
e 179 220
e 179 222
e 179 234
e 179 238
e 179 240
e 179 263
e 179 267
e 179 281
e 179 284
e 179 299
e 180 186
e 180 197
e 180 206
e 180 211
e 180 219
e 180 224
e 180 237
e 180 252
e 180 257
e 180 259
e 180 262
e 180 290
e 180 301
e 181 189
e 181 194
e 181 198
e 181 207
e 181 216
e 181 222
e 181 223
e 181 253
e 181 260
e 181 261
e 181 265
e 181 283
e 181 287
e 181 298
e 182 199
e 182 206
e 182 208
e 182 212
e 182 229
e 182 231
e 182 232
e 182 248
e 182 256
e 182 278
e 182 282
e 182 295
e 183 185
e 183 188
e 183 196
e 183 220
e 183 222
e 183 234
e 183 238
e 183 261
e 183 267
e 183 299
e 184 185
e 184 191
e 184 204
e 184 217
e 184 225
e 184 228
e 184 257
e 184 277
e 184 289
e 184 297
e 185 188
e 185 204
e 185 217
e 185 220
e 185 222
e 185 225
e 185 228
e 185 234
e 185 238
e 185 257
e 185 267
e 185 277
e 185 297
e 185 299
e 186 212
e 186 224
e 186 237
e 186 240
e 186 252
e 186 257
e 186 263
e 186 281
e 186 284
e 186 290
e 187 192
e 187 193
e 187 223
e 187 243
e 187 250
e 187 258
e 187 259
e 187 260
e 187 274
e 187 288
e 187 292
e 187 300
e 188 198
e 188 220
e 188 222
e 188 227
e 188 234
e 188 235
e 188 238
e 188 254
e 188 267
e 188 285
e 188 299
e 189 200
e 189 202
e 189 207
e 189 216
e 189 222
e 189 223
e 189 239
e 189 245
e 189 248
e 189 253
e 189 264
e 189 265
e 190 207
e 190 215
e 190 217
e 190 224
e 190 249
e 190 263
e 190 276
e 190 278
e 190 286
e 191 195
e 191 199
e 191 203
e 191 249
e 191 266
e 191 283
e 191 289
e 191 299
e 192 193
e 192 226
e 192 242
e 192 243
e 192 250
e 192 255
e 192 258
e 192 260
e 192 266
e 192 271
e 192 272
e 192 284
e 192 292
e 193 214
e 193 243
e 193 250
e 193 254
e 193 258
e 193 260
e 193 265
e 193 273
e 193 292
e 193 301
e 194 198
e 194 208
e 194 220
e 194 242
e 194 260
e 194 261
e 194 268
e 194 283
e 194 287
e 194 294
e 194 298
e 195 199
e 195 203
e 195 219
e 195 240
e 195 249
e 195 266
e 195 280
e 195 283
e 195 292
e 195 297
e 195 299
e 196 204
e 196 205
e 196 216
e 196 229
e 196 261
e 196 262
e 197 206
e 197 211
e 197 219
e 197 235
e 197 243
e 197 246
e 197 247
e 197 259
e 197 262
e 197 279
e 197 294
e 197 301
e 198 227
e 198 235
e 198 254
e 198 260
e 198 261
e 198 283
e 198 285
e 198 287
e 198 298
e 199 203
e 199 206
e 199 208
e 199 212
e 199 232
e 199 249
e 199 256
e 199 266
e 199 283
e 199 299
e 200 202
e 200 214
e 200 233
e 200 239
e 200 245
e 200 248
e 200 264
e 200 269
e 200 272
e 200 274
e 200 286
e 201 209
e 201 210
e 201 232
e 201 233
e 201 267
e 201 277
e 201 282
e 201 289
e 201 296
e 202 236
e 202 239
e 202 245
e 202 248
e 202 264
e 202 273
e 202 298
e 203 211
e 203 215
e 203 228
e 203 244
e 203 249
e 203 251
e 203 266
e 203 283
e 203 299
e 204 205
e 204 216
e 204 217
e 204 225
e 204 228
e 204 229
e 204 257
e 204 262
e 204 277
e 204 297
e 205 213
e 205 216
e 205 226
e 205 229
e 205 237
e 205 238
e 205 246
e 205 262
e 205 291
e 206 208
e 206 211
e 206 212
e 206 219
e 206 232
e 206 256
e 206 259
e 206 262
e 206 301
e 207 216
e 207 217
e 207 222
e 207 223
e 207 249
e 207 253
e 207 263
e 207 265
e 207 278
e 207 286
e 208 212
e 208 220
e 208 232
e 208 242
e 208 256
e 208 268
e 208 294
e 209 233
e 209 244
e 209 252
e 209 256
e 209 264
e 209 277
e 209 279
e 209 280
e 209 282
e 209 296
e 210 225
e 210 227
e 210 230
e 210 232
e 210 258
e 210 267
e 210 289
e 210 293
e 211 215
e 211 219
e 211 228
e 211 244
e 211 251
e 211 259
e 211 262
e 211 301
e 212 232
e 212 240
e 212 256
e 212 263
e 212 281
e 212 284
e 213 226
e 213 236
e 213 237
e 213 238
e 213 241
e 213 246
e 213 250
e 213 285
e 213 291
e 213 295
e 214 233
e 214 254
e 214 265
e 214 269
e 214 272
e 214 273
e 214 274
e 214 286
e 214 301
e 215 224
e 215 228
e 215 244
e 215 251
e 215 276
e 216 222
e 216 223
e 216 229
e 216 253
e 216 262
e 216 265
e 217 225
e 217 228
e 217 249
e 217 257
e 217 263
e 217 277
e 217 278
e 217 286
e 217 297
e 218 221
e 218 230
e 218 239
e 218 247
e 218 253
e 218 275
e 218 276
e 218 281
e 219 240
e 219 259
e 219 262
e 219 280
e 219 292
e 219 297
e 219 301
e 220 222
e 220 234
e 220 238
e 220 242
e 220 267
e 220 268
e 220 294
e 220 299
e 221 245
e 221 253
e 221 275
e 221 276
e 221 281
e 222 223
e 222 234
e 222 238
e 222 253
e 222 265
e 222 267
e 222 299
e 223 253
e 223 259
e 223 265
e 223 274
e 223 288
e 223 300
e 224 237
e 224 252
e 224 257
e 224 276
e 224 290
e 225 227
e 225 228
e 225 230
e 225 257
e 225 258
e 225 277
e 225 293
e 225 297
e 226 237
e 226 238
e 226 242
e 226 246
e 226 255
e 226 266
e 226 271
e 226 272
e 226 284
e 226 291
e 227 230
e 227 235
e 227 254
e 227 258
e 227 285
e 227 293
e 228 244
e 228 251
e 228 257
e 228 277
e 228 297
e 229 231
e 229 248
e 229 262
e 229 278
e 229 282
e 229 295
e 230 239
e 230 247
e 230 258
e 230 293
e 231 248
e 231 268
e 231 278
e 231 282
e 231 295
e 232 256
e 232 267
e 232 289
e 233 269
e 233 272
e 233 274
e 233 277
e 233 282
e 233 286
e 233 296
e 234 238
e 234 251
e 234 267
e 234 270
e 234 299
e 235 243
e 235 246
e 235 247
e 235 254
e 235 279
e 235 285
e 235 294
e 236 241
e 236 250
e 236 273
e 236 285
e 236 295
e 236 298
e 237 238
e 237 246
e 237 252
e 237 257
e 237 290
e 237 291
e 238 246
e 238 267
e 238 291
e 238 299
e 239 245
e 239 247
e 239 248
e 239 264
e 240 263
e 240 280
e 240 281
e 240 284
e 240 292
e 240 297
e 241 250
e 241 271
e 241 275
e 241 285
e 241 287
e 241 288
e 241 293
e 241 295
e 241 296
e 242 255
e 242 266
e 242 268
e 242 271
e 242 272
e 242 284
e 242 294
e 243 246
e 243 247
e 243 250
e 243 258
e 243 260
e 243 279
e 243 292
e 243 294
e 244 251
e 244 252
e 244 256
e 244 264
e 244 279
e 244 280
e 245 248
e 245 264
e 246 247
e 246 279
e 246 291
e 246 294
e 247 279
e 247 294
e 248 264
e 248 278
e 248 282
e 248 295
e 249 263
e 249 266
e 249 278
e 249 283
e 249 286
e 249 299
e 250 258
e 250 260
e 250 285
e 250 292
e 250 295
e 251 270
e 252 256
e 252 257
e 252 264
e 252 279
e 252 280
e 252 290
e 253 265
e 253 275
e 253 276
e 253 281
e 254 265
e 254 273
e 254 285
e 254 301
e 255 266
e 255 271
e 255 272
e 255 284
e 255 290
e 255 300
e 256 264
e 256 279
e 256 280
e 257 277
e 257 290
e 257 297
e 258 260
e 258 292
e 258 293
e 259 262
e 259 274
e 259 288
e 259 300
e 259 301
e 260 261
e 260 283
e 260 287
e 260 292
e 260 298
e 261 283
e 261 287
e 261 298
e 262 301
e 263 278
e 263 281
e 263 284
e 263 286
e 264 279
e 264 280
e 265 273
e 265 301
e 266 271
e 266 272
e 266 283
e 266 284
e 266 299
e 267 289
e 267 299
e 268 294
e 269 272
e 269 274
e 269 286
e 270 291
e 271 272
e 271 275
e 271 284
e 271 287
e 271 288
e 271 293
e 271 296
e 272 274
e 272 284
e 272 286
e 273 298
e 273 301
e 274 286
e 274 288
e 274 300
e 275 276
e 275 281
e 275 287
e 275 288
e 275 293
e 275 296
e 276 281
e 277 282
e 277 296
e 277 297
e 278 282
e 278 286
e 278 295
e 279 280
e 279 294
e 280 292
e 280 297
e 281 284
e 282 295
e 282 296
e 283 287
e 283 298
e 283 299
e 285 295
e 287 288
e 287 293
e 287 296
e 287 298
e 288 293
e 288 296
e 288 300
e 290 300
e 292 297
e 293 296
